data/lp_files/pEFS/34_0.lp
\ Model foo
\ LP format - for model browsing. Use MPS format to capture full model detail.
Minimize
  z
Subject To
 allocateEach[1]: x[1,1] + x[2,1] = 1
 allocateEach[2]: x[1,2] + x[2,2] = 1
 allocateEach[3]: x[1,3] + x[2,3] = 1
 allocateEach[4]: x[1,4] + x[2,4] = 1
 allocateEach[5]: x[1,5] + x[2,5] = 1
 allocateEach[6]: x[1,6] + x[2,6] = 1
 allocateEach[7]: x[1,7] + x[2,7] = 1
 allocateEach[8]: x[1,8] + x[2,8] = 1
 allocateEach[9]: x[1,9] + x[2,9] = 1
 allocateEach[10]: x[1,10] + x[2,10] = 1
 allocateEach[11]: x[1,11] + x[2,11] = 1
 allocateEach[12]: x[1,12] + x[2,12] = 1
 allocateEach[13]: x[1,13] + x[2,13] = 1
 allocateEach[14]: x[1,14] + x[2,14] = 1
 allocateAllCash: cashProportion[1] + cashProportion[2] = 1
 findWorstP[1,2]: z + 0.00741059121696729 cashProportion[1]
   - 0.00741059121696729 cashProportion[2] + 0.1106697692341895 x[1,1]
   + 0.0470572542277423 x[1,2] + 0.1426242385617525 x[1,3]
   + 0.0180225578396644 x[1,4] + 0.0121385484133924 x[1,5]
   + 0.0091743119266055 x[1,6] + 0.0898904714618132 x[1,7]
   + 0.0899942197388508 x[1,8] + 0.1292110684590417 x[1,9]
   + 0.0722088008181293 x[1,10] + 0.067969942642024 x[1,11]
   + 0.1125075958559974 x[1,12] + 0.0104044700686221 x[1,13]
   + 0.0807161595352077 x[1,14] - 0.1106697692341895 x[2,1]
   - 0.0470572542277423 x[2,2] - 0.1426242385617525 x[2,3]
   - 0.0180225578396644 x[2,4] - 0.0121385484133924 x[2,5]
   - 0.0091743119266055 x[2,6] - 0.0898904714618132 x[2,7]
   - 0.0899942197388508 x[2,8] - 0.1292110684590417 x[2,9]
   - 0.0722088008181293 x[2,10] - 0.067969942642024 x[2,11]
   - 0.1125075958559974 x[2,12] - 0.0104044700686221 x[2,13]
   - 0.0807161595352077 x[2,14] >= 0
 findWorstP[2,1]: z - 0.00735813515422651 cashProportion[1]
   + 0.00735813515422651 cashProportion[2] - 0.1262067341652932 x[1,1]
   - 0.0947139157052037 x[1,2] - 0.0488727336943725 x[1,3]
   - 0.1280609842241582 x[1,4] - 0.1006592889098187 x[1,5]
   - 0.01189074640923 x[1,6] - 0.0538615493289381 x[1,7]
   - 0.0120673416529315 x[1,8] - 0.0256504591476336 x[1,9]
   - 0.1098569578526018 x[1,10] - 0.0524193548387097 x[1,11]
   - 0.1304744525547445 x[1,12] - 0.0405874735107134 x[1,13]
   - 0.0573198728514245 x[1,14] + 0.1262067341652932 x[2,1]
   + 0.0947139157052037 x[2,2] + 0.0488727336943725 x[2,3]
   + 0.1280609842241582 x[2,4] + 0.1006592889098187 x[2,5]
   + 0.01189074640923 x[2,6] + 0.0538615493289381 x[2,7]
   + 0.0120673416529315 x[2,8] + 0.0256504591476336 x[2,9]
   + 0.1098569578526018 x[2,10] + 0.0524193548387097 x[2,11]
   + 0.1304744525547445 x[2,12] + 0.0405874735107134 x[2,13]
   + 0.0573198728514245 x[2,14] >= 0
Bounds
 z <= 1
 -infinity <= cashProportion[1] <= 1
 -infinity <= cashProportion[2] <= 1
Binaries
 x[1,1] x[1,2] x[1,3] x[1,4] x[1,5] x[1,6] x[1,7] x[1,8] x[1,9] x[1,10]
 x[1,11] x[1,12] x[1,13] x[1,14] x[2,1] x[2,2] x[2,3] x[2,4] x[2,5] x[2,6]
 x[2,7] x[2,8] x[2,9] x[2,10] x[2,11] x[2,12] x[2,13] x[2,14]
End
