data/mps_files/q3/34_0.mps
NAME foo
ROWS
 N  OBJ
 E  allocateEach[1]
 E  allocateEach[2]
 E  allocateEach[3]
 E  allocateEach[4]
 E  allocateEach[5]
 E  allocateEach[6]
 E  allocateEach[7]
 E  allocateEach[8]
 E  allocateEach[9]
 E  allocateEach[10]
 E  allocateEach[11]
 E  allocateEach[12]
 E  allocateEach[13]
 E  allocateEach[14]
 E  allocateAllCash
 G  findWorstP[1,2]
 G  findWorstP[2,1]
COLUMNS
    z         OBJ       1
    z         findWorstP[1,2]  1
    z         findWorstP[2,1]  1
    cashProportion[1]  allocateAllCash  1
    cashProportion[1]  findWorstP[1,2]  0.00741059121696729
    cashProportion[1]  findWorstP[2,1]  -7.3581351542265127e-03
    cashProportion[2]  allocateAllCash  1
    cashProportion[2]  findWorstP[1,2]  -0.00741059121696729
    cashProportion[2]  findWorstP[2,1]  7.3581351542265127e-03
    MARKER    'MARKER'                 'INTORG'
    x[1,1]    allocateEach[1]  1
    x[1,1]    findWorstP[1,2]  1.1066976923418950e-01
    x[1,1]    findWorstP[2,1]  -1.2620673416529316e-01
    x[1,2]    allocateEach[2]  1
    x[1,2]    findWorstP[1,2]  4.7057254227742290e-02
    x[1,2]    findWorstP[2,1]  -9.4713915705203655e-02
    x[1,3]    allocateEach[3]  1
    x[1,3]    findWorstP[1,2]  1.4262423856175246e-01
    x[1,3]    findWorstP[2,1]  -0.0488727336943725
    x[1,4]    allocateEach[4]  1
    x[1,4]    findWorstP[1,2]  1.8022557839664447e-02
    x[1,4]    findWorstP[2,1]  -1.2806098422415821e-01
    x[1,5]    allocateEach[5]  1
    x[1,5]    findWorstP[1,2]  1.2138548413392420e-02
    x[1,5]    findWorstP[2,1]  -1.0065928890981869e-01
    x[1,6]    allocateEach[6]  1
    x[1,6]    findWorstP[1,2]  9.1743119266055034e-03
    x[1,6]    findWorstP[2,1]  -1.1890746409230043e-02
    x[1,7]    allocateEach[7]  1
    x[1,7]    findWorstP[1,2]  8.9890471461813226e-02
    x[1,7]    findWorstP[2,1]  -5.3861549328938073e-02
    x[1,8]    allocateEach[8]  1
    x[1,8]    findWorstP[1,2]  8.9994219738850759e-02
    x[1,8]    findWorstP[2,1]  -1.2067341652931480e-02
    x[1,9]    allocateEach[9]  1
    x[1,9]    findWorstP[1,2]  1.2921106845904168e-01
    x[1,9]    findWorstP[2,1]  -2.5650459147633625e-02
    x[1,10]   allocateEach[10]  1
    x[1,10]   findWorstP[1,2]  7.2208800818129276e-02
    x[1,10]   findWorstP[2,1]  -1.0985695785260184e-01
    x[1,11]   allocateEach[11]  1
    x[1,11]   findWorstP[1,2]  6.7969942642023981e-02
    x[1,11]   findWorstP[2,1]  -5.2419354838709679e-02
    x[1,12]   allocateEach[12]  1
    x[1,12]   findWorstP[1,2]  1.1250759585599739e-01
    x[1,12]   findWorstP[2,1]  -1.3047445255474452e-01
    x[1,13]   allocateEach[13]  1
    x[1,13]   findWorstP[1,2]  1.0404470068622074e-02
    x[1,13]   findWorstP[2,1]  -4.0587473510713443e-02
    x[1,14]   allocateEach[14]  1
    x[1,14]   findWorstP[1,2]  8.0716159535207721e-02
    x[1,14]   findWorstP[2,1]  -5.7319872851424536e-02
    x[2,1]    allocateEach[1]  1
    x[2,1]    findWorstP[1,2]  -1.1066976923418950e-01
    x[2,1]    findWorstP[2,1]  1.2620673416529316e-01
    x[2,2]    allocateEach[2]  1
    x[2,2]    findWorstP[1,2]  -4.7057254227742290e-02
    x[2,2]    findWorstP[2,1]  9.4713915705203655e-02
    x[2,3]    allocateEach[3]  1
    x[2,3]    findWorstP[1,2]  -1.4262423856175246e-01
    x[2,3]    findWorstP[2,1]  0.0488727336943725
    x[2,4]    allocateEach[4]  1
    x[2,4]    findWorstP[1,2]  -1.8022557839664447e-02
    x[2,4]    findWorstP[2,1]  1.2806098422415821e-01
    x[2,5]    allocateEach[5]  1
    x[2,5]    findWorstP[1,2]  -1.2138548413392420e-02
    x[2,5]    findWorstP[2,1]  1.0065928890981869e-01
    x[2,6]    allocateEach[6]  1
    x[2,6]    findWorstP[1,2]  -9.1743119266055034e-03
    x[2,6]    findWorstP[2,1]  1.1890746409230043e-02
    x[2,7]    allocateEach[7]  1
    x[2,7]    findWorstP[1,2]  -8.9890471461813226e-02
    x[2,7]    findWorstP[2,1]  5.3861549328938073e-02
    x[2,8]    allocateEach[8]  1
    x[2,8]    findWorstP[1,2]  -8.9994219738850759e-02
    x[2,8]    findWorstP[2,1]  1.2067341652931480e-02
    x[2,9]    allocateEach[9]  1
    x[2,9]    findWorstP[1,2]  -1.2921106845904168e-01
    x[2,9]    findWorstP[2,1]  2.5650459147633625e-02
    x[2,10]   allocateEach[10]  1
    x[2,10]   findWorstP[1,2]  -7.2208800818129276e-02
    x[2,10]   findWorstP[2,1]  1.0985695785260184e-01
    x[2,11]   allocateEach[11]  1
    x[2,11]   findWorstP[1,2]  -6.7969942642023981e-02
    x[2,11]   findWorstP[2,1]  5.2419354838709679e-02
    x[2,12]   allocateEach[12]  1
    x[2,12]   findWorstP[1,2]  -1.1250759585599739e-01
    x[2,12]   findWorstP[2,1]  1.3047445255474452e-01
    x[2,13]   allocateEach[13]  1
    x[2,13]   findWorstP[1,2]  -1.0404470068622074e-02
    x[2,13]   findWorstP[2,1]  4.0587473510713443e-02
    x[2,14]   allocateEach[14]  1
    x[2,14]   findWorstP[1,2]  -8.0716159535207721e-02
    x[2,14]   findWorstP[2,1]  5.7319872851424536e-02
    MARKER    'MARKER'                 'INTEND'
RHS
    RHS1      allocateEach[1]  1
    RHS1      allocateEach[2]  1
    RHS1      allocateEach[3]  1
    RHS1      allocateEach[4]  1
    RHS1      allocateEach[5]  1
    RHS1      allocateEach[6]  1
    RHS1      allocateEach[7]  1
    RHS1      allocateEach[8]  1
    RHS1      allocateEach[9]  1
    RHS1      allocateEach[10]  1
    RHS1      allocateEach[11]  1
    RHS1      allocateEach[12]  1
    RHS1      allocateEach[13]  1
    RHS1      allocateEach[14]  1
    RHS1      allocateAllCash  1
BOUNDS
 UP BND1      z         1
 MI BND1      cashProportion[1]
 UP BND1      cashProportion[1]  1
 MI BND1      cashProportion[2]
 UP BND1      cashProportion[2]  1
 BV BND1      x[1,1]  
 BV BND1      x[1,2]  
 BV BND1      x[1,3]  
 BV BND1      x[1,4]  
 BV BND1      x[1,5]  
 BV BND1      x[1,6]  
 BV BND1      x[1,7]  
 BV BND1      x[1,8]  
 BV BND1      x[1,9]  
 BV BND1      x[1,10] 
 BV BND1      x[1,11] 
 BV BND1      x[1,12] 
 BV BND1      x[1,13] 
 BV BND1      x[1,14] 
 BV BND1      x[2,1]  
 BV BND1      x[2,2]  
 BV BND1      x[2,3]  
 BV BND1      x[2,4]  
 BV BND1      x[2,5]  
 BV BND1      x[2,6]  
 BV BND1      x[2,7]  
 BV BND1      x[2,8]  
 BV BND1      x[2,9]  
 BV BND1      x[2,10] 
 BV BND1      x[2,11] 
 BV BND1      x[2,12] 
 BV BND1      x[2,13] 
 BV BND1      x[2,14] 
ENDATA
